p cnf 7230 14
-1312 -1624 -2196 0
-1310 -1636 2190 0
1312 -2197 0
1310 -2193 0
2196 2197 0
2194 2195 0
1632 -2195 0
-1632 -2194 0
-2192 2193 0
-2191 2192 0
-2190 2191 0
1624 -2197 0
1636 -2193 0
2188 2189 0
